15319
1 0 0 1 0 1 0 0 0 0 0 0 0 0 1 0 0 1 0 0 1 0 0 0 1 0 0 0 0 0 
20 0 20 14 20 5 17 5 14 0 5 20 20 20 3 14 14 0 5 17 14 5 5 3 3 14 0 5 0 5 24 5 20 17 20 14 24 24 17 14 0 14 5 14 24 14 17 20 0 14 24 14 14 5 20 20 14 17 0 14 0 24 20 0 0 0 5 0 5 5 20 20 17 0 5 20 5 20 14 5 20 17 20 0 0 17 0 0 20 24 14 5 0 0 17 5 14 3 5 20 20 17 14 0 14 17 0 0 14 14 14 14 14 5 0 17 5 5 5 24 5 20 5 20 20 0 0 5 5 3 0 0 24 5 20 14 0 0 20 0 17 20 20 14 20 0 0 17 0 5 
